File : Instances/p59
Used 69s
28015

0 0 1 0 1 0 1 0 0 0 1 0 1 1 0 1 1 1 1 1 1 0 0 1 1 1 0 0 1 0 
18 19 2 24 15 12 15 28 18 28 4 28 23 13 28 18 13 10 16 17 18 16 2 24 10 18 24 19 4 2 6 19 4 16 18 6 20 20 24 16 18 20 6 4 13 19 13 2 19 20 24 16 2 16 20 6 25 20 18 25 4 17 25 20 13 12 23 17 6 12 18 12 6 20 23 23 10 23 20 16 10 17 19 25 4 13 6 2 24 25 28 6 25 25 17 13 28 6 17 28 28 15 12 18 4 24 4 24 16 13 19 4 18 12 12 20 28 25 17 20 19 25 17 19 4 16 2 6 19 17 28 16 12 10 23 20 13 13 28 10 12 16 6 25 25 2 16 15 18 25 24 17 23 17 13 28 2 15 13 13 13 24 10 24 23 28 23 4 13 15 23 20 19 10 4 2 24 10 4 10 2 15 2 19 12 20 28 23 17 16 2 16 6 6 25 12 25 15 10 19 
